c turning on binary mode checking
c parsing input formula with 259840 variables and 1039934 clauses
c finished parsing, read 3145237 bytes from proof file
c detected empty clause; start verification via backward checking
c 9131 of 1039934 clauses in core                            
c 2843 of 127528 lemmas in core using 116428 resolution steps
c 0 RAT lemmas in core; 635 redundant literals in core lemmas
s VERIFIED
c verification time: 1.697 seconds
